solution status: optimal solution found
objective value:                                    0
$_211_y                                            14 	(obj:0)
$_211_z                                            17 	(obj:0)
$_45_y                                              5 	(obj:0)
$_45_z                                             11 	(obj:0)
$_126_y                                            15 	(obj:0)
$_126_z                                            13 	(obj:0)
$_200_y                                            10 	(obj:0)
$_200_z                                            14 	(obj:0)
$_170_y                                            11 	(obj:0)
$_170_z                                            17 	(obj:0)
$_213_y                                            15 	(obj:0)
$_213_z                                            17 	(obj:0)
$_241_y                                            13 	(obj:0)
$_241_z                                            13 	(obj:0)
$_112_y                                             8 	(obj:0)
$_112_z                                            17 	(obj:0)
$_173_y                                            11 	(obj:0)
$_173_z                                            13 	(obj:0)
$_67_y                                             18 	(obj:0)
$_67_z                                              7 	(obj:0)
$_97_y                                              7 	(obj:0)
$_97_z                                             18 	(obj:0)
$_279_y                                            12 	(obj:0)
$_279_z                                             9 	(obj:0)
$_172_y                                            11 	(obj:0)
$_172_z                                            21 	(obj:0)
$_159_y                                             7 	(obj:0)
$_159_z                                            13 	(obj:0)
$_252_y                                            14 	(obj:0)
$_252_z                                            13 	(obj:0)
$_214_y                                            10 	(obj:0)
$_214_z                                            13 	(obj:0)
$_254_y                                            18 	(obj:0)
$_254_z                                            13 	(obj:0)
$_94_y                                             14 	(obj:0)
$_94_z                                              9 	(obj:0)
$_119_y                                            11 	(obj:0)
$_119_z                                            18 	(obj:0)
$_98_y                                             12 	(obj:0)
$_98_z                                             10 	(obj:0)
$_99_y                                              7 	(obj:0)
$_99_z                                             14 	(obj:0)
$_96_y                                             14 	(obj:0)
$_96_z                                             10 	(obj:0)
$_95_y                                              7 	(obj:0)
$_95_z                                             17 	(obj:0)
$_133_y                                            15 	(obj:0)
$_133_z                                             9 	(obj:0)
$_255_y                                            12 	(obj:0)
$_255_z                                            13 	(obj:0)
